c File: instances/22_0.45_2.col
c
c Description: Random graph of size 22 vertices and P(0.44999999999999996) of edges between any two vertices.
p col 22 231
e 1 3
e 1 4
e 1 6
e 1 7
e 1 10
e 1 13
e 1 15
e 1 16
e 1 18
e 1 21
e 2 13
e 2 15
e 2 18
e 2 22
e 3 4
e 3 10
e 3 13
e 3 17
e 3 18
e 3 19
e 4 6
e 4 9
e 4 14
e 4 15
e 4 16
e 4 19
e 4 20
e 4 21
e 5 6
e 5 8
e 5 10
e 5 11
e 5 13
e 5 15
e 5 17
e 5 19
e 5 20
e 6 8
e 6 12
e 6 13
e 6 15
e 6 16
e 6 22
e 7 9
e 7 10
e 7 12
e 7 13
e 7 14
e 7 15
e 7 17
e 7 18
e 7 19
e 8 9
e 8 10
e 8 11
e 8 12
e 8 13
e 8 14
e 8 19
e 8 20
e 8 21
e 8 22
e 9 10
e 9 11
e 9 19
e 9 20
e 9 21
e 10 12
e 10 14
e 10 17
e 10 21
e 10 22
e 11 13
e 11 14
e 11 16
e 11 17
e 11 18
e 12 13
e 12 14
e 12 15
e 12 16
e 12 19
e 12 21
e 13 15
e 13 19
e 14 15
e 14 17
e 14 18
e 14 22
e 15 17
e 15 18
e 15 22
e 16 17
e 16 18
e 16 19
e 17 18
e 17 22
e 19 20
e 19 22
e 20 21
e 20 22
e 21 22